#######################



#######################
Set parameter TimeLimit to value 300
Set parameter SoftMemLimit to value 125
Set parameter MIPFocus to value 3
Set parameter LogFile to value 1003-MIPFocus3-Presolve2-TimeLimit300-k16x240-9.log
Set parameter Presolve to value 2
Set parameter Seed to value 9
Using license file /opt/gurobi/gurobi.lic

Gurobi Optimizer version 10.0.3 build v10.0.3rc0 (linux64)
Copyright (c) 2023, Gurobi Optimization, LLC

Read MPS format model from file /miplib2010/k16x240.mps.bz2
Reading time = 0.00 seconds
k16x240: 256 rows, 480 columns, 960 nonzeros

CPU model: Intel(R) Xeon(R) E-2388G CPU @ 3.20GHz, instruction set [SSE2|AVX|AVX2|AVX512]
Thread count: 8 physical cores, 16 logical processors, using up to 16 threads

Optimize a model with 256 rows, 480 columns and 960 nonzeros
Model fingerprint: 0x4e80885f
Variable types: 240 continuous, 240 integer (240 binary)
Coefficient statistics:
  Matrix range     [1e+00, 1e+03]
  Objective range  [1e+00, 1e+03]
  Bounds range     [1e+00, 1e+03]
  RHS range        [4e+00, 4e+02]
Found heuristic solution: objective 21896.000000
Presolve time: 0.00s
Presolved: 256 rows, 480 columns, 960 nonzeros
Variable types: 240 continuous, 240 integer (240 binary)
Root relaxation presolve removed 241 rows and 240 columns
Root relaxation presolved: 15 rows, 240 columns, 450 nonzeros


Root relaxation: objective 2.769838e+03, 16 iterations, 0.00 seconds (0.00 work units)

    Nodes    |    Current Node    |     Objective Bounds      |     Work
 Expl Unexpl |  Obj  Depth IntInf | Incumbent    BestBd   Gap | It/Node Time

     0     0 2769.83800    0   14 21896.0000 2769.83800  87.4%     -    0s
H    0     0                    11359.000000 2769.83800  75.6%     -    0s
H    0     0                    11213.000000 8116.87580  27.6%     -    0s
H    0     0                    11174.000000 8116.87580  27.4%     -    0s
H    0     0                    11170.000000 8116.87580  27.3%     -    0s
     0     0 8116.87580    0   26 11170.0000 8116.87580  27.3%     -    0s
H    0     0                    11077.000000 8116.87580  26.7%     -    0s
H    0     0                    11001.000000 8116.87580  26.2%     -    0s
     0     0 8759.12100    0   24 11001.0000 8759.12100  20.4%     -    0s
     0     0 8760.57998    0   16 11001.0000 8760.57998  20.4%     -    0s
     0     0 8760.57998    0   26 11001.0000 8760.57998  20.4%     -    0s
     0     0 8800.46368    0   27 11001.0000 8800.46368  20.0%     -    0s
     0     0 8957.77153    0   39 11001.0000 8957.77153  18.6%     -    0s
H    0     0                    10995.000000 8957.77153  18.5%     -    0s
H    0     0                    10967.000000 8957.77153  18.3%     -    0s
H    0     0                    10949.000000 8966.17471  18.1%     -    0s
     0     0 8966.17471    0   40 10949.0000 8966.17471  18.1%     -    0s
     0     0 9102.74223    0   35 10949.0000 9102.74223  16.9%     -    0s
     0     0 9102.75959    0   36 10949.0000 9102.75959  16.9%     -    0s
     0     0 9180.80022    0   30 10949.0000 9180.80022  16.1%     -    0s
H    0     0                    10794.000000 9180.80022  14.9%     -    0s
     0     0 9204.44798    0   34 10794.0000 9204.44798  14.7%     -    0s
     0     0 9204.44798    0   34 10794.0000 9204.44798  14.7%     -    0s
H    0     0                    10792.000000 9204.44798  14.7%     -    0s
     0     2 9204.87930    0   34 10792.0000 9204.87930  14.7%     -    0s
H   31    40                    10711.000000 9414.06461  12.1%  85.1    0s
H   32    40                    10681.000000 9421.10349  11.8%  84.8    0s
H   37    40                    10678.000000 9422.79854  11.8%  82.5    0s
H  349   371                    10674.000000 9567.51617  10.4%  45.5    0s
  3784  2907 10323.4164   17   18 10674.0000 10189.1510  4.54%  75.3    5s
 13881  9318     cutoff   27      10674.0000 10396.1058  2.60%  63.9   10s
 32589 16010     cutoff   28      10674.0000 10524.0917  1.40%  50.5   15s
 59425  9803 10648.6937   43    4 10674.0000 10624.6372  0.46%  38.6   20s

Cutting planes:
  Lift-and-project: 7
  Cover: 2
  Implied bound: 1
  MIR: 128
  Flow cover: 493
  Flow path: 27
  Zero half: 45
  Network: 21
  Relax-and-lift: 3

Explored 73915 nodes (2459027 simplex iterations) in 21.40 seconds (40.48 work units)
Thread count was 16 (of 16 available processors)

Solution count 10: 10674 10678 10681 ... 11001

Optimal solution found (tolerance 1.00e-04)
Best objective 1.067400000000e+04, best bound 1.067315913525e+04, gap 0.0079%
